sets/C/cp-n20-k4.vrp
NAME : (null)
COMMENT : (null)
TYPE : CVRP
DIMENSION : 20
EDGE_WEIGHT_TYPE : EUC_2D
CAPACITY : 59
NODE_COORD_SECTION
 1   0  16
 2  14  18
 3  13   8
 4   2   4
 5   5  19
 6   3  10
 7   3   3
 8   3  14
 9   7   5
10   3  19
11   5  12
12   6   1
13   8   1
14  14   3
15   8  12
16  19  19
17  11   3
18  12  14
19   1  15
20   7  15
DEMAND_SECTION
 1   0
 2  19
 3   7
 4  15
 5  11
 6  10
 7  18
 8   3
 9  18
10   7
11   1
12  20
13  12
14  23
15  11
16   4
17   1
18  18
19  23
20  13
DEPOT_SECTION
 1
-1
EOF