sets/C/cp-n20-k4.opt
Route #1: 17 15 1 4 9
Route #2: 7 8 11 6
Route #3: 3 12 16 13 2
Route #4: 19 14 10 5 18
cost 144
